西直门->积水潭
weekday
5 33 40 46 51	
6 02 08 16 21 25 33 37 44 49 55 57	
7 03 06 11 14 19 22 27 31 34 37 40 42 45 48 51 53 56 59
8 02 04 07 10 13 16 19 22 25 27 30 33 36 38 41 44 47 49 52 55 58	
9 01 04 07 10 13 16 21 24 29 32 37 41 46 50 55	
10 02 06 11 15 20 28 36 42 51 58
11 06 13 21 28 36 43 51 58
12 06 13 21 28 36 43 51 58
13 06 13 21 28 36 43 51 58
14 06 13 21 28 36 43 51 58
15 06 13 21 28 36 43 51 59
16 06 14 21 29 37 41 48 53 56
17 02 07 11 14 19 23 26 31 35 38 41 44 47 50 53 56 59
18 02 05 08 11 14 17 20 23 26 29 32 35 38 41 44 47 50 53 56
19 00 02 05 11 14 17 23 26 30 35 38 42 48 52 56
20 00 04 09 15 22 28 34 41 46 54
21 00 07 13 20 26 32 39 45 52
22 00 07 14 22 30 37 44 51 59

weekend
5 33 39 45 54	
6 03 11 20 26 35 42 50 57	
7 05 12 20 27 35 42 50 57	
8 05 12 20 27 35 42 50 57	
9 05 12 20 27 35 42 50 57	
10 05 12 20 27 35 42 50 57
11 05 12 20 27 35 42 50 57	
12 05 12 20 27 35 42 50 57
13 05 12 20 27 35 42 50 57
14 05 12 20 27 35 42 50 57
15 05 12 20 27 35 42 50 57
16 05 12 20 27 35 42 50 57
17 05 12 20 27 35 42 50 57
18 05 12 20 27 35 42 50 57
19 05 12 20 27 35 42 50 57
20 05 12 20 27 35 42 50 57
21 05 12 20 27 35 43 51 
22 00 07 14 21 31 41 49 59



